S = 4;
start = [|0,0,0,13,0,0,0,0,0,0,5,0,0,0,12,0|
0,0,0,0,0,5,8,0,0,0,0,0,0,0,0,0|
0,0,0,0,0,0,0,12,0,0,0,6,0,0,0,0|
0,0,0,0,14,0,13,0,0,0,0,0,6,0,0,0|
0,0,0,3,6,15,9,0,0,0,0,10,0,0,0,0|
11,0,0,0,0,0,0,0,0,12,0,0,0,3,0,0|
0,0,0,0,0,0,0,0,0,2,0,0,0,16,0,0|
0,0,0,0,0,0,0,0,0,7,6,0,0,0,0,0|
8,14,0,4,0,12,0,0,0,1,0,0,16,0,0,0|
0,0,0,0,1,13,0,0,12,0,3,0,11,0,0,0|
15,1,0,0,2,7,10,0,4,6,0,0,9,0,0,0|
0,0,3,0,0,0,15,0,0,5,2,0,14,0,1,7|
0,0,15,0,0,0,0,0,0,0,12,0,0,0,0,3|
7,0,0,0,10,0,14,0,0,15,0,0,0,0,0,0|
0,13,0,0,0,0,12,0,0,8,0,0,7,0,0,0|
0,0,0,0,0,16,0,9,6,0,0,0,0,0,0,8|];